language ESSENCE' 1.0

letting C_FunctionND be
        [[0, 0, 0, 0, 0, 0, 0, 0, 0, 0, 0, 0, 0; int(0..12)], [1, 0, 0, 0, 0, 0, 0, 0, 0, 0, 0, 0, 0; int(0..12)],
         [1, 0, 0, 0, 0, 0, 0, 0, 0, 0, 0, 0, 0; int(0..12)], [1, 0, 0, 0, 0, 0, 0, 0, 0, 0, 0, 0, 0; int(0..12)],
         [1, 0, 0, 0, 0, 0, 0, 0, 0, 0, 0, 0, 0; int(0..12)], [1, 0, 0, 0, 0, 0, 0, 0, 0, 0, 0, 0, 0; int(0..12)],
         [0, 1, 1, 0, 1, 0, 0, 0, 0, 0, 0, 0, 0; int(0..12)], [0, 1, 0, 1, 0, 0, 0, 0, 0, 0, 0, 0, 0; int(0..12)],
         [0, 1, 0, 0, 0, 1, 0, 0, 0, 0, 0, 0, 0; int(0..12)], [0, 0, 1, 1, 0, 0, 0, 0, 0, 0, 0, 0, 0; int(0..12)],
         [0, 0, 1, 0, 0, 1, 0, 0, 0, 0, 0, 0, 0; int(0..12)], [0, 0, 0, 1, 1, 1, 0, 0, 0, 0, 0, 0, 0; int(0..12)],
         [0, 0, 0, 0, 0, 0, 1, 1, 1, 1, 1, 1, 0; int(0..12)];
             int(0..12)]
$ Visualisation for C_FunctionND
$ 0 0 0 0 0 0 0 0 0 0 0 0 0
$ 1 0 0 0 0 0 0 0 0 0 0 0 0
$ 1 0 0 0 0 0 0 0 0 0 0 0 0
$ 1 0 0 0 0 0 0 0 0 0 0 0 0
$ 1 0 0 0 0 0 0 0 0 0 0 0 0
$ 1 0 0 0 0 0 0 0 0 0 0 0 0
$ 0 1 1 0 1 0 0 0 0 0 0 0 0
$ 0 1 0 1 0 0 0 0 0 0 0 0 0
$ 0 1 0 0 0 1 0 0 0 0 0 0 0
$ 0 0 1 1 0 0 0 0 0 0 0 0 0
$ 0 0 1 0 0 1 0 0 0 0 0 0 0
$ 0 0 0 1 1 1 0 0 0 0 0 0 0
$ 0 0 0 0 0 0 1 1 1 1 1 1 0

letting J_FunctionND be
        [[0, 1, 2, 3, 4, 5, 6, 7, 8, 9, 10, 11, 12; int(0..12)],
         [1, 1, 6, 7, 6, 8, 6, 7, 8, 12, 12, 12, 12; int(0..12)],
         [2, 6, 2, 9, 6, 10, 6, 12, 12, 9, 10, 12, 12; int(0..12)],
         [3, 7, 9, 3, 11, 11, 12, 7, 12, 9, 12, 11, 12; int(0..12)],
         [4, 6, 6, 11, 4, 11, 6, 12, 12, 12, 12, 11, 12; int(0..12)],
         [5, 8, 10, 11, 11, 5, 12, 12, 8, 12, 10, 11, 12; int(0..12)],
         [6, 6, 6, 12, 6, 12, 6, 12, 12, 12, 12, 12, 12; int(0..12)],
         [7, 7, 12, 7, 12, 12, 12, 7, 12, 12, 12, 12, 12; int(0..12)],
         [8, 8, 12, 12, 12, 8, 12, 12, 8, 12, 12, 12, 12; int(0..12)],
         [9, 12, 9, 9, 12, 12, 12, 12, 12, 9, 12, 12, 12; int(0..12)],
         [10, 12, 10, 12, 12, 10, 12, 12, 12, 12, 10, 12, 12; int(0..12)],
         [11, 12, 12, 11, 11, 11, 12, 12, 12, 12, 12, 11, 12; int(0..12)],
         [12, 12, 12, 12, 12, 12, 12, 12, 12, 12, 12, 12, 12; int(0..12)];
             int(0..12)]
$ Visualisation for J_FunctionND
$  0  1  2  3  4  5  6  7  8  9 10 11 12
$  1  1  6  7  6  8  6  7  8 12 12 12 12
$  2  6  2  9  6 10  6 12 12  9 10 12 12
$  3  7  9  3 11 11 12  7 12  9 12 11 12
$  4  6  6 11  4 11  6 12 12 12 12 11 12
$  5  8 10 11 11  5 12 12  8 12 10 11 12
$  6  6  6 12  6 12  6 12 12 12 12 12 12
$  7  7 12  7 12 12 12  7 12 12 12 12 12
$  8  8 12 12 12  8 12 12  8 12 12 12 12
$  9 12  9  9 12 12 12 12 12  9 12 12 12
$ 10 12 10 12 12 10 12 12 12 12 10 12 12
$ 11 12 12 11 11 11 12 12 12 12 12 11 12
$ 12 12 12 12 12 12 12 12 12 12 12 12 12

letting M_FunctionND be
        [[0, 0, 0, 0, 0, 0, 0, 0, 0, 0, 0, 0, 0; int(0..12)], [0, 1, 0, 0, 0, 0, 1, 1, 1, 0, 0, 0, 1; int(0..12)],
         [0, 0, 2, 0, 0, 0, 2, 0, 0, 2, 2, 0, 2; int(0..12)], [0, 0, 0, 3, 0, 0, 0, 3, 0, 3, 0, 3, 3; int(0..12)],
         [0, 0, 0, 0, 4, 0, 4, 0, 0, 0, 0, 4, 4; int(0..12)], [0, 0, 0, 0, 0, 5, 0, 0, 5, 0, 5, 5, 5; int(0..12)],
         [0, 1, 2, 0, 4, 0, 6, 1, 1, 2, 2, 4, 6; int(0..12)], [0, 1, 0, 3, 0, 0, 1, 7, 1, 3, 0, 3, 7; int(0..12)],
         [0, 1, 0, 0, 0, 5, 1, 1, 8, 0, 5, 5, 8; int(0..12)], [0, 0, 2, 3, 0, 0, 2, 3, 0, 9, 2, 3, 9; int(0..12)],
         [0, 0, 2, 0, 0, 5, 2, 0, 5, 2, 10, 5, 10; int(0..12)], [0, 0, 0, 3, 4, 5, 4, 3, 5, 3, 5, 11, 11; int(0..12)],
         [0, 1, 2, 3, 4, 5, 6, 7, 8, 9, 10, 11, 12; int(0..12)];
             int(0..12)]
$ Visualisation for M_FunctionND
$  0  0  0  0  0  0  0  0  0  0  0  0  0
$  0  1  0  0  0  0  1  1  1  0  0  0  1
$  0  0  2  0  0  0  2  0  0  2  2  0  2
$  0  0  0  3  0  0  0  3  0  3  0  3  3
$  0  0  0  0  4  0  4  0  0  0  0  4  4
$  0  0  0  0  0  5  0  0  5  0  5  5  5
$  0  1  2  0  4  0  6  1  1  2  2  4  6
$  0  1  0  3  0  0  1  7  1  3  0  3  7
$  0  1  0  0  0  5  1  1  8  0  5  5  8
$  0  0  2  3  0  0  2  3  0  9  2  3  9
$  0  0  2  0  0  5  2  0  5  2 10  5 10
$  0  0  0  3  4  5  4  3  5  3  5 11 11
$  0  1  2  3  4  5  6  7  8  9 10 11 12

letting R_Function1D be [0, 1, 1, 1, 1, 1, 2, 2, 2, 2, 2, 2, 3; int(0..12)]
